c generated by sgen
p cnf 89 188
-2 -3 -4 0
-1 -3 -4 0
-1 -2 -4 0
-1 -2 -3 0
-6 -7 -8 0
-5 -7 -8 0
-5 -6 -8 0
-5 -6 -7 0
-10 -11 -12 0
-9 -11 -12 0
-9 -10 -12 0
-9 -10 -11 0
-14 -15 -16 0
-13 -15 -16 0
-13 -14 -16 0
-13 -14 -15 0
-18 -19 -20 0
-17 -19 -20 0
-17 -18 -20 0
-17 -18 -19 0
-22 -23 -24 0
-21 -23 -24 0
-21 -22 -24 0
-21 -22 -23 0
-26 -27 -28 0
-25 -27 -28 0
-25 -26 -28 0
-25 -26 -27 0
-30 -31 -32 0
-29 -31 -32 0
-29 -30 -32 0
-29 -30 -31 0
-34 -35 -36 0
-33 -35 -36 0
-33 -34 -36 0
-33 -34 -35 0
-38 -39 -40 0
-37 -39 -40 0
-37 -38 -40 0
-37 -38 -39 0
-42 -43 -44 0
-41 -43 -44 0
-41 -42 -44 0
-41 -42 -43 0
-46 -47 -48 0
-45 -47 -48 0
-45 -46 -48 0
-45 -46 -47 0
-50 -51 -52 0
-49 -51 -52 0
-49 -50 -52 0
-49 -50 -51 0
-54 -55 -56 0
-53 -55 -56 0
-53 -54 -56 0
-53 -54 -55 0
-58 -59 -60 0
-57 -59 -60 0
-57 -58 -60 0
-57 -58 -59 0
-62 -63 -64 0
-61 -63 -64 0
-61 -62 -64 0
-61 -62 -63 0
-66 -67 -68 0
-65 -67 -68 0
-65 -66 -68 0
-65 -66 -67 0
-70 -71 -72 0
-69 -71 -72 0
-69 -70 -72 0
-69 -70 -71 0
-74 -75 -76 0
-73 -75 -76 0
-73 -74 -76 0
-73 -74 -75 0
-78 -79 -80 0
-77 -79 -80 0
-77 -78 -80 0
-77 -78 -79 0
-82 -83 -84 0
-81 -83 -84 0
-81 -82 -84 0
-81 -82 -83 0
-85 -86 -87 0
-85 -86 -88 0
-85 -86 -89 0
-85 -87 -88 0
-85 -87 -89 0
-85 -88 -89 0
-86 -87 -88 0
-86 -87 -89 0
-86 -88 -89 0
-87 -88 -89 0
55 76 8 0
33 76 8 0
33 55 8 0
33 55 76 0
34 77 69 0
63 77 69 0
63 34 69 0
63 34 77 0
44 54 51 0
89 54 51 0
89 44 51 0
89 44 54 0
31 35 60 0
49 35 60 0
49 31 60 0
49 31 35 0
74 32 15 0
61 32 15 0
61 74 15 0
61 74 32 0
78 23 47 0
6 23 47 0
6 78 47 0
6 78 23 0
58 13 18 0
5 13 18 0
5 58 18 0
5 58 13 0
25 88 7 0
66 88 7 0
66 25 7 0
66 25 88 0
11 20 50 0
40 20 50 0
40 11 50 0
40 11 20 0
26 45 12 0
52 45 12 0
52 26 12 0
52 26 45 0
39 81 73 0
42 81 73 0
42 39 73 0
42 39 81 0
57 84 72 0
87 84 72 0
87 57 72 0
87 57 84 0
48 62 2 0
85 62 2 0
85 48 2 0
85 48 62 0
9 29 79 0
86 29 79 0
86 9 79 0
86 9 29 0
68 36 37 0
4 36 37 0
4 68 37 0
4 68 36 0
83 80 16 0
27 80 16 0
27 83 16 0
27 83 80 0
46 56 82 0
17 56 82 0
17 46 82 0
17 46 56 0
71 1 75 0
65 1 75 0
65 71 75 0
65 71 1 0
41 30 3 0
19 30 3 0
19 41 3 0
19 41 30 0
38 70 24 0
14 70 24 0
14 38 24 0
14 38 70 0
53 28 21 0
59 28 21 0
59 53 21 0
59 53 28 0
22 67 43 0
22 67 10 0
22 67 64 0
22 43 10 0
22 43 64 0
22 10 64 0
67 43 10 0
67 43 64 0
67 10 64 0
43 10 64 0
